Assets/LKHProbs~/skull.67.tsp
NAME : GeneratedProblem
COMMENT : SVGCrosshatch
TYPE : TSP
DIMENSION : 28
EDGE_WEIGHT_TYPE : EUC_2D
NODE_COORD_SECTION
1 4200 9000
2 4300 9000
3 4300 9100
4 4300 9200
5 4400 9000
6 4400 9100
7 4400 9200
8 4400 9300
9 4400 9400
10 4500 9000
11 4500 9100
12 4500 9200
13 4500 9300
14 4500 9400
15 4500 9500
16 4500 9600
17 4600 9000
18 4600 9100
19 4600 9200
20 4600 9300
21 4600 9400
22 4600 9500
23 4700 9000
24 4700 9100
25 4700 9200
26 4700 9300
27 4800 9000
28 4800 9100
EOF
