Assets/LKHProbs~/skull.67.out.txt
NAME : GeneratedProblem.2882.tour
COMMENT : Length = 2882
COMMENT : Found by LKH [Keld Helsgaun] Sun Nov 25 13:17:43 2018
TYPE : TOUR
DIMENSION : 28
TOUR_SECTION
1
2
5
10
17
23
27
28
24
18
19
25
26
20
21
22
16
15
14
9
8
13
12
11
6
7
4
3
-1
EOF
